%BLOCK LATTICE_CART
6 0 0 
0 6 0
%ENDBLOCK LATTICE_CART

