%BLOCK LATTICE_CART
6 0 0 
0 6 0
0 0 6
%ENDBLOCK LATTICE_CART

%BLOCK POSITIONS_ABS
H 3.980599 4.178342 3.295079
H 5.033394 3.43043 4.504759
H 5.71907 4.552257 3.315353
H 3.720235 5.329505 5.509909
H 4.412171 6.433572 4.317001
H 5.911611 5.032284 6.242202
C 4.84694 4.350631 3.941136
C 4.603025 5.518738 4.882532
O 5.746254 5.812705 5.6871
%ENDBLOCK POSITIONS_ABS

%BLOCK KPOINTS_LIST
0.25 0.25 0.25 1.0 
%ENDBLOCK KPOINTS_LIST

