%block SPECIES_POT
H H_POT.ASC.DAT
C C_POT.ASC.DAT
Cu Cu_POT.ASC.DAT
O O_POT.ASC.DAT
P P_POT.ASC.DAT
%endblock SPECIES_POT

%block POSITIONS_FRAC

H -0.121401 -0.063068 -0.160518
H -0.152269 -0.209934 -0.310660
H -0.082408 -0.340347 -0.346533
H 0.025755 -0.323442 -0.238511
H 0.058414 -0.167230 -0.080481
H -0.021544 -0.314672 -0.001806
H -0.008013 -0.495696 0.129289
H 0.011422 -0.397726 0.293268
H 0.014823 -0.121587 0.319600
H 0.000695 0.041842 0.180504
H -0.116494 -0.034749 0.007104
H -0.198538 0.147145 -0.015492
H -0.196755 0.393323 -0.082128
H -0.114674 0.466182 -0.107088
H -0.028515 0.291180 -0.074178
H 0.302645 -0.062271 0.263107
H 0.335675 -0.209788 0.417550
H 0.253124 -0.347695 0.445088
H 0.136403 -0.316273 0.323556
H 0.108052 -0.169628 0.178125
H 0.185883 -0.323213 0.096291
H 0.168954 -0.499496 -0.040211
H 0.146415 -0.397526 -0.205355
H 0.144249 -0.123812 -0.229799
H 0.159561 0.042063 -0.093655
H 0.295272 -0.038621 0.092189
H 0.386941 0.145400 0.124240
H 0.384753 0.394094 0.189346
H 0.288379 0.471438 0.205601
H 0.197669 0.292386 0.165426
H 0.380232 0.439231 -0.157969
H 0.347461 0.290743 -0.313469
H 0.431602 0.151742 -0.340331
H 0.552592 0.187316 -0.213468
H 0.574783 0.329660 -0.074433
H 0.499194 0.177708 0.009136
H 0.515611 0.000190 0.145935
H 0.540322 0.104494 0.314023
H 0.541157 0.374917 0.335451
H 0.525352 0.541692 0.200235
H 0.388325 0.460387 0.013938
H 0.296868 0.645208 -0.018169
H 0.299840 0.894957 -0.082923
H 0.396552 0.973188 -0.100191
H 0.487544 0.792641 -0.059117
H 0.802348 0.439442 0.262738
H 0.833619 0.291299 0.415036
H 0.762734 0.158716 0.450276
H 0.655716 0.177993 0.341632
H 0.624346 0.332554 0.185497
H 0.702997 0.187287 0.106289
H 0.687929 0.005014 -0.026769
H 0.669294 0.104200 -0.190273
H 0.667676 0.378365 -0.214806
H 0.680619 0.541535 -0.076845
H 0.797403 0.465100 0.095788
H 0.879639 0.646856 0.118200
H 0.877767 0.894880 0.184872
H 0.795070 0.966907 0.210309
H 0.709712 0.790308 0.176390
H 0.302921 0.078383 0.763401
H 0.335720 0.225499 0.917634
H 0.253167 0.362839 0.945231
H 0.136721 0.331327 0.823048
H 0.108317 0.185947 0.677606
H 0.185964 0.339000 0.596398
H 0.168805 0.515224 0.460127
H 0.146210 0.412803 0.294566
H 0.144235 0.140348 0.270197
H 0.159694 -0.026192 0.407394
H 0.294853 0.054540 0.592013
H 0.386975 -0.128930 0.624273
H 0.384380 -0.378527 0.689131
H 0.288087 -0.455371 0.705322
H 0.197673 -0.276171 0.665285
H -0.121549 0.078299 0.339334
H -0.152426 0.225173 0.189277
H -0.082110 0.356384 0.153799
H 0.025427 0.339455 0.261193
H 0.058343 0.182883 0.419439
H -0.021435 0.330634 0.498397
H -0.007323 0.510616 0.629638
H 0.011792 0.413460 0.793384
H 0.015018 0.137295 0.819635
H 0.000451 -0.025718 0.680132
H -0.116542 0.050335 0.507168
H -0.198567 -0.131040 0.484397
H -0.196776 -0.378956 0.418181
H -0.114530 -0.451057 0.393095
H -0.028442 -0.275558 0.426424
H 0.802335 -0.423412 0.763077
H 0.833696 -0.275186 0.915244
H 0.762550 -0.143436 0.949691
H 0.655952 -0.162121 0.841640
H 0.624356 -0.316270 0.685932
H 0.702773 -0.172034 0.606169
H 0.688135 0.011290 0.473618
H 0.668458 -0.088223 0.309350
H 0.667049 -0.361948 0.285339
H 0.680349 -0.525201 0.422740
H 0.797313 -0.449581 0.595883
H 0.879815 -0.630668 0.618590
H 0.877767 -0.878967 0.684698
H 0.795196 -0.951670 0.710238
H 0.709904 -0.773970 0.676970
H 0.380182 -0.423664 0.342052
H 0.347534 -0.274377 0.186937
H 0.432072 -0.135010 0.160418
H 0.552338 -0.171221 0.286238
H 0.576842 -0.313984 0.426974
H 0.499572 -0.161878 0.509285
H 0.516150 0.015627 0.646148
H 0.539947 -0.088881 0.813498
H 0.541240 -0.359774 0.835608
H 0.525995 -0.526116 0.700804
H 0.388602 -0.444313 0.514083
H 0.296868 -0.630043 0.481608
H 0.299625 -0.878637 0.416973
H 0.396480 -0.957034 0.400074
H 0.487541 -0.776462 0.440980
H 0.075841 0.507706 0.042106
H 0.607668 0.005880 0.063027
H 0.076032 -0.492330 0.542123
H 0.608196 0.009327 0.563161
C -0.063504 0.122417 -0.021020
C -0.000004 -0.130440 0.089622
C -0.026096 -0.109231 -0.110571
C 0.016694 -0.181649 -0.131015
C -0.087011 -0.120110 -0.176366
C -0.103902 -0.203956 -0.259222
C -0.061122 -0.276264 -0.277794
C -0.000906 -0.265714 -0.214183
C 0.010989 -0.076264 0.180612
C -0.002921 -0.281209 0.075801
C 0.005989 -0.376594 0.151530
C 0.016990 -0.321649 0.241081
C 0.019198 -0.171319 0.255814
C -0.062101 0.261978 -0.056509
C -0.113313 0.080000 -0.006287
C -0.161408 0.178351 -0.028075
C -0.159621 0.316483 -0.063204
C -0.110515 0.358681 -0.077097
C 0.246088 0.122417 0.125831
C 0.182587 -0.130440 0.015189
C 0.208679 -0.109231 0.215382
C 0.165889 -0.181649 0.235826
C 0.269582 -0.120110 0.281177
C 0.286486 -0.203956 0.364033
C 0.243706 -0.276264 0.382605
C 0.183483 -0.265714 0.319018
C 0.171594 -0.076264 -0.075802
C 0.185492 -0.281209 0.029010
C 0.176595 -0.376594 -0.046719
C 0.165594 -0.321649 -0.136270
C 0.163393 -0.171319 -0.150979
C 0.244685 0.261978 0.161320
C 0.295890 0.080000 0.111122
C 0.343978 0.178351 0.132886
C 0.342191 0.316483 0.168015
C 0.293099 0.358681 0.181908
C 0.436496 0.622417 -0.021020
C 0.499996 0.369560 0.089622
C 0.473904 0.390769 -0.110571
C 0.516694 0.318351 -0.131015
C 0.412989 0.379890 -0.176366
C 0.396098 0.296044 -0.259222
C 0.438878 0.223736 -0.277794
C 0.499094 0.234286 -0.214183
C 0.510989 0.423736 0.180612
C 0.497079 0.218791 0.075801
C 0.505989 0.123406 0.151530
C 0.516990 0.178351 0.241081
C 0.519198 0.328681 0.255814
C 0.437899 0.761978 -0.056509
C 0.386687 0.580000 -0.006287
C 0.338592 0.678351 -0.028075
C 0.340379 0.816483 -0.063204
C 0.389485 0.858681 -0.077097
C 0.746088 0.622417 0.125831
C 0.682587 0.369560 0.015189
C 0.708679 0.390769 0.215382
C 0.665889 0.318351 0.235826
C 0.769582 0.379890 0.281177
C 0.786486 0.296044 0.364033
C 0.743706 0.223736 0.382605
C 0.683483 0.234286 0.319018
C 0.671594 0.423736 -0.075802
C 0.685492 0.218791 0.029010
C 0.676595 0.123406 -0.046719
C 0.665594 0.178351 -0.136270
C 0.663393 0.328681 -0.150979
C 0.744685 0.761978 0.161320
C 0.795890 0.580000 0.111122
C 0.843978 0.678351 0.132886
C 0.842191 0.816483 0.168015
C 0.793099 0.858681 0.181908
C 0.246085 -0.106813 0.625836
C 0.182585 0.146044 0.515193
C 0.208677 0.124835 0.715387
C 0.165887 0.197253 0.735831
C 0.269593 0.135714 0.781182
C 0.286483 0.219560 0.864038
C 0.243704 0.291868 0.882610
C 0.183487 0.281318 0.818998
C 0.171592 0.091868 0.424203
C 0.185503 0.296813 0.529015
C 0.176592 0.392198 0.453285
C 0.165591 0.337253 0.363735
C 0.163383 0.186923 0.349002
C 0.244683 -0.246374 0.661325
C 0.295894 -0.064396 0.611103
C 0.343989 -0.162747 0.632891
C 0.342202 -0.300879 0.668020
C 0.293096 -0.343077 0.681913
C -0.063506 -0.106813 0.478984
C -0.000006 0.146044 0.589627
C -0.026098 0.124835 0.389434
C 0.016692 0.197253 0.368990
C -0.087000 0.135714 0.323639
C -0.103904 0.219560 0.240783
C -0.061125 0.291868 0.222210
C -0.000902 0.281318 0.285798
C 0.010987 0.091868 0.680617
C -0.002910 0.296813 0.575806
C 0.005987 0.392198 0.651535
C 0.016988 0.337253 0.741086
C 0.019188 0.186923 0.755795
C -0.062104 -0.246374 0.443495
C -0.113309 -0.064396 0.493694
C -0.161397 -0.162747 0.471930
C -0.159610 -0.300879 0.436801
C -0.110518 -0.343077 0.422907
C 0.746085 -0.606813 0.625836
C 0.682585 -0.353956 0.515193
C 0.708677 -0.375165 0.715387
C 0.665887 -0.302747 0.735831
C 0.769593 -0.364286 0.781182
C 0.786483 -0.280440 0.864038
C 0.743704 -0.208132 0.882610
C 0.683487 -0.218682 0.818998
C 0.671592 -0.408132 0.424203
C 0.685503 -0.203187 0.529015
C 0.676592 -0.107802 0.453285
C 0.665591 -0.162747 0.363735
C 0.663383 -0.313077 0.349002
C 0.744683 -0.746374 0.661325
C 0.795894 -0.564396 0.611103
C 0.843989 -0.662747 0.632891
C 0.842202 -0.800879 0.668020
C 0.793096 -0.843077 0.681913
C 0.436494 -0.606813 0.478984
C 0.499994 -0.353956 0.589627
C 0.473902 -0.375165 0.389434
C 0.516692 -0.302747 0.368990
C 0.413000 -0.364286 0.323639
C 0.396096 -0.280440 0.240783
C 0.438875 -0.208132 0.222210
C 0.499098 -0.218682 0.285798
C 0.510987 -0.408132 0.680617
C 0.497090 -0.203187 0.575806
C 0.505987 -0.107802 0.651535
C 0.516988 -0.162747 0.741086
C 0.519188 -0.313077 0.755795
C 0.437896 -0.746374 0.443495
C 0.386691 -0.564396 0.493694
C 0.338603 -0.662747 0.471930
C 0.340390 -0.800879 0.436801
C 0.389482 -0.843077 0.422907
C 0.091285 0.384835 0.052405
C 0.591285 -0.115165 0.052405
C 0.091283 -0.369231 0.552410
C 0.591283 0.130769 0.552410
O 0.090899 0.321648 -0.017709
O 0.091685 0.321648 0.122520
O 0.590899 -0.178352 -0.017709
O 0.591685 -0.178352 0.122520
O 0.091682 -0.306044 0.622525
O 0.090897 -0.306044 0.482296
O 0.591682 0.193956 0.622525
O 0.590897 0.193956 0.482296
P 0.000000 0.000000 0.000000
P 0.182584 0.000000 0.104811
P 0.500000 0.500000 0.000000
P 0.682584 0.500000 0.104811
P 0.182582 0.015604 0.604816
P -0.000003 0.015604 0.500004
P 0.682582 -0.484396 0.604816
P 0.499997 -0.484396 0.500004
Cu 0.091285 0.107692 0.052405
Cu 0.591285 0.607692 0.052405
Cu 0.091283 -0.092088 0.552410
Cu 0.591283 -0.592088 0.552410
%endblock POSITIONS_FRAC

%block LATTICE_CART
ang
24.582002 0.000000 0.000000
0.000000 9.100001 0.000000
-6.805420 0.000000 13.891590
%endblock LATTICE_CART

jcoupling_site: P 1
kpoint_mp_grid 1 1 1
kpoint_mp_offset 0.25 0.25 0.25


